NAME F-JSSP-SDST
ROWS
 N  OBJ
 E  c0      
 E  c1      
 E  c2      
 E  c3      
 E  c4      
 E  c5      
 E  c6      
 E  c7      
 E  c8      
 E  c9      
 E  c10     
 E  c11     
 L  c12     
 L  c13     
 L  c14     
 L  c15     
 L  c16     
 L  c17     
 L  c18     
 L  c19     
 L  c20     
 L  c21     
 L  c22     
 L  c23     
 L  c24     
 L  c25     
 L  c26     
 L  c27     
 L  c28     
 L  c29     
 L  c30     
 L  c31     
 G  c32     
 G  c33     
 G  c34     
 G  c35     
 G  c36     
 G  c37     
 G  c38     
 G  c39     
 G  c40     
 G  c41     
 G  c42     
 G  c43     
 G  c44     
 G  c45     
 G  c46     
 G  c47     
 G  c48     
 G  c49     
 G  c50     
 G  c51     
 G  c52     
 G  c53     
 G  c54     
 G  c55     
 G  c56     
 G  c57     
 G  c58     
 G  c59     
 G  c60     
 G  c61     
 G  c62     
 G  c63     
 G  c64     
 G  c65     
 G  c66     
 G  c67     
 G  c68     
 G  c69     
 G  c70     
 G  c71     
 G  c72     
 G  c73     
 G  c74     
 G  c75     
 G  c76     
 G  c77     
 G  c78     
 G  c79     
 G  c80     
 G  c81     
 G  c82     
 G  c83     
 G  c84     
 G  c85     
 G  c86     
 G  c87     
 G  c88     
 G  c89     
 G  c90     
 G  c91     
 G  c92     
 G  c93     
 G  c94     
 G  c95     
 G  c96     
 G  c97     
 G  c98     
 G  c99     
 G  c100    
 G  c101    
 G  c102    
 G  c103    
 G  c104    
 G  c105    
 G  c106    
 G  c107    
 G  c108    
 G  c109    
 G  c110    
 G  c111    
 G  c112    
 G  c113    
 G  c114    
 G  c115    
 G  c116    
 G  c117    
 G  c118    
 G  c119    
 G  c120    
 G  c121    
 G  c122    
 G  c123    
 G  c124    
 G  c125    
 G  c126    
 G  c127    
 G  c128    
 G  c129    
 G  c130    
 G  c131    
 G  c132    
 G  c133    
 G  c134    
 G  c135    
 G  c136    
 G  c137    
 G  c138    
 L  c139    
 G  c140    
 L  c141    
 G  c142    
 L  c143    
 G  c144    
 L  c145    
 G  c146    
 L  c147    
 G  c148    
 L  c149    
 G  c150    
 L  c151    
 G  c152    
 L  c153    
 G  c154    
 L  c155    
 G  c156    
 L  c157    
 G  c158    
 L  c159    
 G  c160    
 L  c161    
 G  c162    
 L  c163    
 G  c164    
 L  c165    
 G  c166    
 L  c167    
 G  c168    
 L  c169    
 G  c170    
 L  c171    
 G  c172    
 L  c173    
 G  c174    
 L  c175    
 G  c176    
 L  c177    
 G  OF_constraint
COLUMNS
    MARKER    'MARKER'                 'INTORG'
    B0(11)    c0        1
    B0(11)    c12       -1000000000
    B0(11)    c32       -147
    B0(11)    c42       -1000000000
    B0(11)    c43       -1000000000
    B0(11)    c44       -1000000000
    B0(11)    c45       -1000000000
    B0(11)    c46       -1000000000
    B0(11)    c47       -1000000000
    B0(11)    c138      147
    B0(11)    c139      147
    B1(10)    c1        1
    B1(10)    c13       -1000000000
    B1(10)    c33       -140
    B1(10)    c34       -1000000140
    B1(10)    c52       -1000000000
    B1(10)    c53       -1000000000
    B1(10)    c56       -1000000000
    B1(10)    c57       -1000000000
    B1(10)    c140      140
    B1(10)    c141      140
    B2(12)    c1        1
    B2(12)    c14       -1000000000
    B2(12)    c33       -130
    B2(12)    c34       -130
    B2(12)    c48       -1000000000
    B2(12)    c49       -1000000000
    B2(12)    c50       -1000000000
    B2(12)    c51       -1000000000
    B2(12)    c54       -1000000000
    B2(12)    c55       -1000000000
    B2(12)    c142      130
    B2(12)    c143      130
    B3(9)     c2        1
    B3(9)     c15       -1000000000
    B3(9)     c34       -1000000000
    B3(9)     c60       -1000000000
    B3(9)     c61       -1000000000
    B3(9)     c66       -1000000000
    B3(9)     c67       -1000000000
    B3(9)     c144      150
    B3(9)     c145      150
    B4(10)    c2        1
    B4(10)    c16       -1000000000
    B4(10)    c58       -1000000000
    B4(10)    c59       -1000000000
    B4(10)    c62       -1000000000
    B4(10)    c63       -1000000000
    B4(10)    c64       -1000000000
    B4(10)    c65       -1000000000
    B4(10)    c146      160
    B4(10)    c147      160
    B5(12)    c3        1
    B5(12)    c17       -1000000000
    B5(12)    c35       -214
    B5(12)    c36       -214
    B5(12)    c42       -1000000000
    B5(12)    c43       -1000000000
    B5(12)    c68       -1000000000
    B5(12)    c69       -1000000000
    B5(12)    c72       -1000000000
    B5(12)    c73       -1000000000
    B5(12)    c148      214
    B5(12)    c149      214
    B6(10)    c3        1
    B6(10)    c18       -1000000000
    B6(10)    c35       -150
    B6(10)    c36       -1000000150
    B6(10)    c70       -1000000000
    B6(10)    c71       -1000000000
    B6(10)    c74       -1000000000
    B6(10)    c75       -1000000000
    B6(10)    c150      150
    B6(10)    c151      150
    B7(10)    c4        1
    B7(10)    c19       -1000000000
    B7(10)    c36       -1000000000
    B7(10)    c37       -87
    B7(10)    c78       -1000000000
    B7(10)    c79       -1000000000
    B7(10)    c82       -1000000000
    B7(10)    c83       -1000000000
    B7(10)    c152      87
    B7(10)    c153      87
    B8(11)    c4        1
    B8(11)    c20       -1000000000
    B8(11)    c37       -66
    B8(11)    c48       -1000000000
    B8(11)    c49       -1000000000
    B8(11)    c76       -1000000000
    B8(11)    c77       -1000000000
    B8(11)    c80       -1000000000
    B8(11)    c81       -1000000000
    B8(11)    c154      66
    B8(11)    c155      66
    B9(10)    c5        1
    B9(10)    c21       -1000000000
    B9(10)    c58       -1000000000
    B9(10)    c59       -1000000000
    B9(10)    c84       -1000000000
    B9(10)    c85       -1000000000
    B9(10)    c86       -1000000000
    B9(10)    c87       -1000000000
    B9(10)    c156      178
    B9(10)    c157      178
    B10(11)   c6        1
    B10(11)   c22       -1000000000
    B10(11)   c38       -87
    B10(11)   c44       -1000000000
    B10(11)   c45       -1000000000
    B10(11)   c68       -1000000000
    B10(11)   c69       -1000000000
    B10(11)   c88       -1000000000
    B10(11)   c89       -1000000000
    B10(11)   c158      87
    B10(11)   c159      87
    B11(11)   c6        1
    B11(11)   c23       -1000000000
    B11(11)   c38       -62
    B11(11)   c50       -1000000000
    B11(11)   c51       -1000000000
    B11(11)   c76       -1000000000
    B11(11)   c77       -1000000000
    B11(11)   c90       -1000000000
    B11(11)   c91       -1000000000
    B11(11)   c160      62
    B11(11)   c161      62
    B12(11)   c7        1
    B12(11)   c24       -1000000000
    B12(11)   c39       -180
    B12(11)   c70       -1000000000
    B12(11)   c71       -1000000000
    B12(11)   c78       -1000000000
    B12(11)   c79       -1000000000
    B12(11)   c92       -1000000000
    B12(11)   c93       -1000000000
    B12(11)   c162      180
    B12(11)   c163      180
    B13(10)   c8        1
    B13(10)   c25       -1000000000
    B13(10)   c52       -1000000000
    B13(10)   c53       -1000000000
    B13(10)   c60       -1000000000
    B13(10)   c61       -1000000000
    B13(10)   c96       -1000000000
    B13(10)   c97       -1000000000
    B13(10)   c164      190
    B13(10)   c165      190
    B14(10)   c8        1
    B14(10)   c26       -1000000000
    B14(10)   c62       -1000000000
    B14(10)   c63       -1000000000
    B14(10)   c84       -1000000000
    B14(10)   c85       -1000000000
    B14(10)   c94       -1000000000
    B14(10)   c95       -1000000000
    B14(10)   c166      100
    B14(10)   c167      100
    B15(11)   c9        1
    B15(11)   c27       -1000000000
    B15(11)   c40       -87
    B15(11)   c46       -1000000000
    B15(11)   c47       -1000000000
    B15(11)   c72       -1000000000
    B15(11)   c73       -1000000000
    B15(11)   c88       -1000000000
    B15(11)   c89       -1000000000
    B15(11)   c168      87
    B15(11)   c169      87
    B16(11)   c9        1
    B16(11)   c28       -1000000000
    B16(11)   c40       -65
    B16(11)   c54       -1000000000
    B16(11)   c55       -1000000000
    B16(11)   c80       -1000000000
    B16(11)   c81       -1000000000
    B16(11)   c90       -1000000000
    B16(11)   c91       -1000000000
    B16(11)   c170      65
    B16(11)   c171      65
    B17(11)   c10       1
    B17(11)   c29       -1000000000
    B17(11)   c41       -173
    B17(11)   c64       -1000000000
    B17(11)   c65       -1000000000
    B17(11)   c86       -1000000000
    B17(11)   c87       -1000000000
    B17(11)   c94       -1000000000
    B17(11)   c95       -1000000000
    B17(11)   c172      173
    B17(11)   c173      173
    B18(10)   c11       1
    B18(10)   c30       -1000000000
    B18(10)   c56       -1000000000
    B18(10)   c57       -1000000000
    B18(10)   c66       -1000000000
    B18(10)   c67       -1000000000
    B18(10)   c96       -1000000000
    B18(10)   c97       -1000000000
    B18(10)   c174      145
    B18(10)   c175      145
    B19(10)   c11       1
    B19(10)   c31       -1000000000
    B19(10)   c74       -1000000000
    B19(10)   c75       -1000000000
    B19(10)   c82       -1000000000
    B19(10)   c83       -1000000000
    B19(10)   c92       -1000000000
    B19(10)   c93       -1000000000
    B19(10)   c176      136
    B19(10)   c177      136
    B20(0)    OBJ       0
    B21(0)    OBJ       0
    B22(0)    OBJ       0
    B23(2)    c42       -1000000000
    B23(2)    c43       1000000000
    B24(0)    OBJ       0
    B25(0)    OBJ       0
    B26(2)    c44       -1000000000
    B26(2)    c45       1000000000
    B27(0)    OBJ       0
    B28(0)    OBJ       0
    B29(2)    c46       -1000000000
    B29(2)    c47       1000000000
    B30(0)    OBJ       0
    B31(0)    OBJ       0
    B32(0)    OBJ       0
    B33(0)    OBJ       0
    B34(0)    OBJ       0
    B35(0)    OBJ       0
    B36(2)    c48       -1000000000
    B36(2)    c49       1000000000
    B37(0)    OBJ       0
    B38(2)    c50       -1000000000
    B38(2)    c51       1000000000
    B39(0)    OBJ       0
    B40(2)    c52       -1000000000
    B40(2)    c53       1000000000
    B41(2)    c54       -1000000000
    B41(2)    c55       1000000000
    B42(0)    OBJ       0
    B43(2)    c56       -1000000000
    B43(2)    c57       1000000000
    B44(0)    OBJ       0
    B45(0)    OBJ       0
    B46(0)    OBJ       0
    B47(0)    OBJ       0
    B48(0)    OBJ       0
    B49(2)    c58       -1000000000
    B49(2)    c59       1000000000
    B50(0)    OBJ       0
    B51(0)    OBJ       0
    B52(4)    c60       -1000000000
    B52(4)    c61       1000000000
    B52(4)    c62       -1000000000
    B52(4)    c63       1000000000
    B53(0)    OBJ       0
    B54(2)    c64       -1000000000
    B54(2)    c65       1000000000
    B55(2)    c66       -1000000000
    B55(2)    c67       1000000000
    B56(0)    OBJ       0
    B57(0)    OBJ       0
    B58(0)    OBJ       0
    B59(0)    OBJ       0
    B60(0)    OBJ       0
    B61(0)    OBJ       0
    B62(2)    c68       -1000000000
    B62(2)    c69       1000000000
    B63(2)    c70       -1000000000
    B63(2)    c71       1000000000
    B64(0)    OBJ       0
    B65(2)    c72       -1000000000
    B65(2)    c73       1000000000
    B66(0)    OBJ       0
    B67(2)    c74       -1000000000
    B67(2)    c75       1000000000
    B68(0)    OBJ       0
    B69(0)    OBJ       0
    B70(0)    OBJ       0
    B71(0)    OBJ       0
    B72(0)    OBJ       0
    B73(0)    OBJ       0
    B74(2)    c76       -1000000000
    B74(2)    c77       1000000000
    B75(2)    c78       -1000000000
    B75(2)    c79       1000000000
    B76(0)    OBJ       0
    B77(2)    c80       -1000000000
    B77(2)    c81       1000000000
    B78(0)    OBJ       0
    B79(2)    c82       -1000000000
    B79(2)    c83       1000000000
    B80(0)    OBJ       0
    B81(0)    OBJ       0
    B82(0)    OBJ       0
    B83(0)    OBJ       0
    B84(0)    OBJ       0
    B85(0)    OBJ       0
    B86(0)    OBJ       0
    B87(0)    OBJ       0
    B88(2)    c84       -1000000000
    B88(2)    c85       1000000000
    B89(0)    OBJ       0
    B90(2)    c86       -1000000000
    B90(2)    c87       1000000000
    B91(0)    OBJ       0
    B92(0)    OBJ       0
    B93(0)    OBJ       0
    B94(0)    OBJ       0
    B95(0)    OBJ       0
    B96(0)    OBJ       0
    B97(0)    OBJ       0
    B98(0)    OBJ       0
    B99(0)    OBJ       0
    B100(0)   OBJ       0
    B101(4)   c88       -1000000000
    B101(4)   c89       1000000000
    B101(4)   c90       -1000000000
    B101(4)   c91       1000000000
    B102(0)   OBJ       0
    B103(0)   OBJ       0
    B104(0)   OBJ       0
    B105(0)   OBJ       0
    B106(0)   OBJ       0
    B107(0)   OBJ       0
    B108(0)   OBJ       0
    B109(0)   OBJ       0
    B110(0)   OBJ       0
    B111(0)   OBJ       0
    B112(0)   OBJ       0
    B113(0)   OBJ       0
    B114(0)   OBJ       0
    B115(2)   c92       -1000000000
    B115(2)   c93       1000000000
    B116(0)   OBJ       0
    B117(0)   OBJ       0
    B118(0)   OBJ       0
    B119(0)   OBJ       0
    B120(0)   OBJ       0
    B121(0)   OBJ       0
    B122(0)   OBJ       0
    B123(0)   OBJ       0
    B124(0)   OBJ       0
    B125(0)   OBJ       0
    B126(2)   c94       -1000000000
    B126(2)   c95       1000000000
    B127(2)   c96       -1000000000
    B127(2)   c97       1000000000
    B128(0)   OBJ       0
    B129(0)   OBJ       0
    B130(0)   OBJ       0
    B131(0)   OBJ       0
    B132(0)   OBJ       0
    B133(0)   OBJ       0
    B134(0)   OBJ       0
    B135(0)   OBJ       0
    B136(0)   OBJ       0
    B137(0)   OBJ       0
    B138(0)   OBJ       0
    B139(0)   OBJ       0
    B140(0)   OBJ       0
    B141(0)   OBJ       0
    B142(0)   OBJ       0
    B143(0)   OBJ       0
    B144(0)   OBJ       0
    B145(0)   OBJ       0
    B146(0)   OBJ       0
    B147(0)   OBJ       0
    B148(0)   OBJ       0
    B149(0)   OBJ       0
    B150(0)   OBJ       0
    B151(0)   OBJ       0
    B152(0)   OBJ       0
    B153(0)   OBJ       0
    B154(0)   OBJ       0
    B155(0)   OBJ       0
    B156(0)   OBJ       0
    B157(0)   OBJ       0
    B158(0)   OBJ       0
    B159(0)   OBJ       0
    B160(0)   OBJ       0
    B161(0)   OBJ       0
    B162(0)   OBJ       0
    B163(0)   OBJ       0
    I164(12)  c12       1
    I164(12)  c32       -1
    I164(12)  c42       1
    I164(12)  c43       -1
    I164(12)  c44       1
    I164(12)  c45       -1
    I164(12)  c46       1
    I164(12)  c47       -1
    I164(12)  c98       1
    I164(12)  c99       1
    I164(12)  c138      1
    I164(12)  c139      1
    I165(12)  c13       1
    I165(12)  c32       1
    I165(12)  c33       -1
    I165(12)  c34       -1
    I165(12)  c52       1
    I165(12)  c53       -1
    I165(12)  c56       1
    I165(12)  c57       -1
    I165(12)  c100      1
    I165(12)  c101      1
    I165(12)  c140      1
    I165(12)  c141      1
    I166(14)  c14       1
    I166(14)  c32       1
    I166(14)  c33       -1
    I166(14)  c34       -1
    I166(14)  c48       1
    I166(14)  c49       -1
    I166(14)  c50       1
    I166(14)  c51       -1
    I166(14)  c54       1
    I166(14)  c55       -1
    I166(14)  c102      1
    I166(14)  c103      1
    I166(14)  c142      1
    I166(14)  c143      1
    I167(12)  c15       1
    I167(12)  c33       1
    I167(12)  c34       1
    I167(12)  c60       1
    I167(12)  c61       -1
    I167(12)  c66       1
    I167(12)  c67       -1
    I167(12)  c104      1
    I167(12)  c105      1
    I167(12)  c144      1
    I167(12)  c145      1
    I168(14)  c16       1
    I168(14)  c33       1
    I168(14)  c34       1
    I168(14)  c58       1
    I168(14)  c59       -1
    I168(14)  c62       1
    I168(14)  c63       -1
    I168(14)  c64       1
    I168(14)  c65       -1
    I168(14)  c106      1
    I168(14)  c107      1
    I168(14)  c146      1
    I168(14)  c147      1
    I169(13)  c17       1
    I169(13)  c35       -1
    I169(13)  c36       -1
    I169(13)  c42       -1
    I169(13)  c43       1
    I169(13)  c68       1
    I169(13)  c69       -1
    I169(13)  c72       1
    I169(13)  c73       -1
    I169(13)  c108      1
    I169(13)  c109      1
    I169(13)  c148      1
    I169(13)  c149      1
    I170(11)  c18       1
    I170(11)  c35       -1
    I170(11)  c36       -1
    I170(11)  c70       1
    I170(11)  c71       -1
    I170(11)  c74       1
    I170(11)  c75       -1
    I170(11)  c110      1
    I170(11)  c111      1
    I170(11)  c150      1
    I170(11)  c151      1
    I171(12)  c19       1
    I171(12)  c35       1
    I171(12)  c36       1
    I171(12)  c37       -1
    I171(12)  c78       1
    I171(12)  c79       -1
    I171(12)  c82       1
    I171(12)  c83       -1
    I171(12)  c112      1
    I171(12)  c113      1
    I171(12)  c152      1
    I171(12)  c153      1
    I172(14)  c20       1
    I172(14)  c35       1
    I172(14)  c36       1
    I172(14)  c37       -1
    I172(14)  c48       -1
    I172(14)  c49       1
    I172(14)  c76       1
    I172(14)  c77       -1
    I172(14)  c80       1
    I172(14)  c81       -1
    I172(14)  c114      1
    I172(14)  c115      1
    I172(14)  c154      1
    I172(14)  c155      1
    I173(13)  c21       1
    I173(13)  c37       1
    I173(13)  c58       -1
    I173(13)  c59       1
    I173(13)  c84       1
    I173(13)  c85       -1
    I173(13)  c86       1
    I173(13)  c87       -1
    I173(13)  c116      1
    I173(13)  c117      1
    I173(13)  c156      1
    I173(13)  c157      1
    I174(12)  c22       1
    I174(12)  c38       -1
    I174(12)  c44       -1
    I174(12)  c45       1
    I174(12)  c68       -1
    I174(12)  c69       1
    I174(12)  c88       1
    I174(12)  c89       -1
    I174(12)  c118      1
    I174(12)  c119      1
    I174(12)  c158      1
    I174(12)  c159      1
    I175(12)  c23       1
    I175(12)  c38       -1
    I175(12)  c50       -1
    I175(12)  c51       1
    I175(12)  c76       -1
    I175(12)  c77       1
    I175(12)  c90       1
    I175(12)  c91       -1
    I175(12)  c120      1
    I175(12)  c121      1
    I175(12)  c160      1
    I175(12)  c161      1
    I176(13)  c24       1
    I176(13)  c38       1
    I176(13)  c39       -1
    I176(13)  c70       -1
    I176(13)  c71       1
    I176(13)  c78       -1
    I176(13)  c79       1
    I176(13)  c92       1
    I176(13)  c93       -1
    I176(13)  c122      1
    I176(13)  c123      1
    I176(13)  c162      1
    I176(13)  c163      1
    I177(13)  c25       1
    I177(13)  c39       1
    I177(13)  c52       -1
    I177(13)  c53       1
    I177(13)  c60       -1
    I177(13)  c61       1
    I177(13)  c96       1
    I177(13)  c97       -1
    I177(13)  c124      1
    I177(13)  c125      1
    I177(13)  c164      1
    I177(13)  c165      1
    I178(13)  c26       1
    I178(13)  c39       1
    I178(13)  c62       -1
    I178(13)  c63       1
    I178(13)  c84       -1
    I178(13)  c85       1
    I178(13)  c94       1
    I178(13)  c95       -1
    I178(13)  c126      1
    I178(13)  c127      1
    I178(13)  c166      1
    I178(13)  c167      1
    I179(12)  c27       1
    I179(12)  c40       -1
    I179(12)  c46       -1
    I179(12)  c47       1
    I179(12)  c72       -1
    I179(12)  c73       1
    I179(12)  c88       -1
    I179(12)  c89       1
    I179(12)  c128      1
    I179(12)  c129      1
    I179(12)  c168      1
    I179(12)  c169      1
    I180(12)  c28       1
    I180(12)  c40       -1
    I180(12)  c54       -1
    I180(12)  c55       1
    I180(12)  c80       -1
    I180(12)  c81       1
    I180(12)  c90       -1
    I180(12)  c91       1
    I180(12)  c130      1
    I180(12)  c131      1
    I180(12)  c170      1
    I180(12)  c171      1
    I181(13)  c29       1
    I181(13)  c40       1
    I181(13)  c41       -1
    I181(13)  c64       -1
    I181(13)  c65       1
    I181(13)  c86       -1
    I181(13)  c87       1
    I181(13)  c94       -1
    I181(13)  c95       1
    I181(13)  c132      1
    I181(13)  c133      1
    I181(13)  c172      1
    I181(13)  c173      1
    I182(13)  c30       1
    I182(13)  c41       1
    I182(13)  c56       -1
    I182(13)  c57       1
    I182(13)  c66       -1
    I182(13)  c67       1
    I182(13)  c96       -1
    I182(13)  c97       1
    I182(13)  c134      1
    I182(13)  c135      1
    I182(13)  c174      1
    I182(13)  c175      1
    I183(13)  c31       1
    I183(13)  c41       1
    I183(13)  c74       -1
    I183(13)  c75       1
    I183(13)  c82       -1
    I183(13)  c83       1
    I183(13)  c92       -1
    I183(13)  c93       1
    I183(13)  c136      1
    I183(13)  c137      1
    I183(13)  c176      1
    I183(13)  c177      1
    I184(1)   OBJ       1
    I184(1)   OF_constraint  1
    B185(2)   c138      -1000000000
    B185(2)   c139      -1000000000
    B186(2)   c140      -1000000000
    B186(2)   c141      -1000000000
    B187(2)   c142      -1000000000
    B187(2)   c143      -1000000000
    B188(4)   c144      -1000000000
    B188(4)   c145      -1000000000
    B188(4)   OF_constraint  -39
    B189(4)   c146      -1000000000
    B189(4)   c147      -1000000000
    B189(4)   OF_constraint  -49
    B190(2)   c148      -1000000000
    B190(2)   c149      -1000000000
    B191(2)   c150      -1000000000
    B191(2)   c151      -1000000000
    B192(2)   c152      -1000000000
    B192(2)   c153      -1000000000
    B193(2)   c154      -1000000000
    B193(2)   c155      -1000000000
    B194(4)   c156      -1000000000
    B194(4)   c157      -1000000000
    B194(4)   OF_constraint  -78
    B195(2)   c158      -1000000000
    B195(2)   c159      -1000000000
    B196(2)   c160      -1000000000
    B196(2)   c161      -1000000000
    B197(2)   c162      -1000000000
    B197(2)   c163      -1000000000
    B198(4)   c164      -1000000000
    B198(4)   c165      -1000000000
    B198(4)   OF_constraint  -135
    B199(4)   c166      -1000000000
    B199(4)   c167      -1000000000
    B199(4)   OF_constraint  -45
    B200(2)   c168      -1000000000
    B200(2)   c169      -1000000000
    B201(2)   c170      -1000000000
    B201(2)   c171      -1000000000
    B202(2)   c172      -1000000000
    B202(2)   c173      -1000000000
    B203(4)   c174      -1000000000
    B203(4)   c175      -1000000000
    B203(4)   OF_constraint  -111
    B204(4)   c176      -1000000000
    B204(4)   c177      -1000000000
    B204(4)   OF_constraint  -102
    MARKER    'MARKER'                 'INTEND'
RHS
    RHS1      c0        1
    RHS1      c1        1
    RHS1      c2        1
    RHS1      c3        1
    RHS1      c4        1
    RHS1      c5        1
    RHS1      c6        1
    RHS1      c7        1
    RHS1      c8        1
    RHS1      c9        1
    RHS1      c10       1
    RHS1      c11       1
    RHS1      c34       -1999999989
    RHS1      c36       -1999999988
    RHS1      c42       -2999999770
    RHS1      c43       -1999999842
    RHS1      c44       -2999999899
    RHS1      c45       -1999999839
    RHS1      c46       -2999999897
    RHS1      c47       -1999999841
    RHS1      c48       -2999999921
    RHS1      c49       -1999999858
    RHS1      c50       -2999999923
    RHS1      c51       -1999999858
    RHS1      c52       -2999999797
    RHS1      c53       -1999999845
    RHS1      c54       -2999999921
    RHS1      c55       -1999999856
    RHS1      c56       -2999999843
    RHS1      c57       -1999999848
    RHS1      c58       -2999999810
    RHS1      c59       -1999999827
    RHS1      c60       -2999999794
    RHS1      c61       -1999999837
    RHS1      c62       -2999999887
    RHS1      c63       -1999999825
    RHS1      c64       -2999999814
    RHS1      c65       -1999999826
    RHS1      c66       -2999999842
    RHS1      c67       -1999999837
    RHS1      c68       -2999999900
    RHS1      c69       -1999999773
    RHS1      c70       -2999999807
    RHS1      c71       -1999999836
    RHS1      c72       -2999999899
    RHS1      c73       -1999999772
    RHS1      c74       -2999999854
    RHS1      c75       -1999999838
    RHS1      c76       -2999999925
    RHS1      c77       -1999999922
    RHS1      c78       -2999999806
    RHS1      c79       -1999999899
    RHS1      c80       -2999999924
    RHS1      c81       -1999999921
    RHS1      c82       -2999999851
    RHS1      c83       -1999999901
    RHS1      c84       -2999999889
    RHS1      c85       -1999999810
    RHS1      c86       -2999999814
    RHS1      c87       -1999999810
    RHS1      c88       -2999999900
    RHS1      c89       -1999999903
    RHS1      c90       -2999999923
    RHS1      c91       -1999999926
    RHS1      c92       -2999999852
    RHS1      c93       -1999999808
    RHS1      c94       -2999999815
    RHS1      c95       -1999999890
    RHS1      c96       -2999999841
    RHS1      c97       -1999999795
    RHS1      c138      -999999889
    RHS1      c139      111
    RHS1      c140      -999999889
    RHS1      c141      111
    RHS1      c142      -999999889
    RHS1      c143      111
    RHS1      c144      -999999889
    RHS1      c145      111
    RHS1      c146      -999999889
    RHS1      c147      111
    RHS1      c148      -999999900
    RHS1      c149      100
    RHS1      c150      -999999900
    RHS1      c151      100
    RHS1      c152      -999999900
    RHS1      c153      100
    RHS1      c154      -999999900
    RHS1      c155      100
    RHS1      c156      -999999900
    RHS1      c157      100
    RHS1      c158      -999999945
    RHS1      c159      55
    RHS1      c160      -999999945
    RHS1      c161      55
    RHS1      c162      -999999945
    RHS1      c163      55
    RHS1      c164      -999999945
    RHS1      c165      55
    RHS1      c166      -999999945
    RHS1      c167      55
    RHS1      c168      -999999966
    RHS1      c169      34
    RHS1      c170      -999999966
    RHS1      c171      34
    RHS1      c172      -999999966
    RHS1      c173      34
    RHS1      c174      -999999966
    RHS1      c175      34
    RHS1      c176      -999999966
    RHS1      c177      34
BOUNDS
 BV BND1      B0(11)  
 BV BND1      B1(10)  
 BV BND1      B2(12)  
 BV BND1      B3(9)   
 BV BND1      B4(10)  
 BV BND1      B5(12)  
 BV BND1      B6(10)  
 BV BND1      B7(10)  
 BV BND1      B8(11)  
 BV BND1      B9(10)  
 BV BND1      B10(11) 
 BV BND1      B11(11) 
 BV BND1      B12(11) 
 BV BND1      B13(10) 
 BV BND1      B14(10) 
 BV BND1      B15(11) 
 BV BND1      B16(11) 
 BV BND1      B17(11) 
 BV BND1      B18(10) 
 BV BND1      B19(10) 
 BV BND1      B20(0)  
 BV BND1      B21(0)  
 BV BND1      B22(0)  
 BV BND1      B23(2)  
 BV BND1      B24(0)  
 BV BND1      B25(0)  
 BV BND1      B26(2)  
 BV BND1      B27(0)  
 BV BND1      B28(0)  
 BV BND1      B29(2)  
 BV BND1      B30(0)  
 BV BND1      B31(0)  
 BV BND1      B32(0)  
 BV BND1      B33(0)  
 BV BND1      B34(0)  
 BV BND1      B35(0)  
 BV BND1      B36(2)  
 BV BND1      B37(0)  
 BV BND1      B38(2)  
 BV BND1      B39(0)  
 BV BND1      B40(2)  
 BV BND1      B41(2)  
 BV BND1      B42(0)  
 BV BND1      B43(2)  
 BV BND1      B44(0)  
 BV BND1      B45(0)  
 BV BND1      B46(0)  
 BV BND1      B47(0)  
 BV BND1      B48(0)  
 BV BND1      B49(2)  
 BV BND1      B50(0)  
 BV BND1      B51(0)  
 BV BND1      B52(4)  
 BV BND1      B53(0)  
 BV BND1      B54(2)  
 BV BND1      B55(2)  
 BV BND1      B56(0)  
 BV BND1      B57(0)  
 BV BND1      B58(0)  
 BV BND1      B59(0)  
 BV BND1      B60(0)  
 BV BND1      B61(0)  
 BV BND1      B62(2)  
 BV BND1      B63(2)  
 BV BND1      B64(0)  
 BV BND1      B65(2)  
 BV BND1      B66(0)  
 BV BND1      B67(2)  
 BV BND1      B68(0)  
 BV BND1      B69(0)  
 BV BND1      B70(0)  
 BV BND1      B71(0)  
 BV BND1      B72(0)  
 BV BND1      B73(0)  
 BV BND1      B74(2)  
 BV BND1      B75(2)  
 BV BND1      B76(0)  
 BV BND1      B77(2)  
 BV BND1      B78(0)  
 BV BND1      B79(2)  
 BV BND1      B80(0)  
 BV BND1      B81(0)  
 BV BND1      B82(0)  
 BV BND1      B83(0)  
 BV BND1      B84(0)  
 BV BND1      B85(0)  
 BV BND1      B86(0)  
 BV BND1      B87(0)  
 BV BND1      B88(2)  
 BV BND1      B89(0)  
 BV BND1      B90(2)  
 BV BND1      B91(0)  
 BV BND1      B92(0)  
 BV BND1      B93(0)  
 BV BND1      B94(0)  
 BV BND1      B95(0)  
 BV BND1      B96(0)  
 BV BND1      B97(0)  
 BV BND1      B98(0)  
 BV BND1      B99(0)  
 BV BND1      B100(0) 
 BV BND1      B101(4) 
 BV BND1      B102(0) 
 BV BND1      B103(0) 
 BV BND1      B104(0) 
 BV BND1      B105(0) 
 BV BND1      B106(0) 
 BV BND1      B107(0) 
 BV BND1      B108(0) 
 BV BND1      B109(0) 
 BV BND1      B110(0) 
 BV BND1      B111(0) 
 BV BND1      B112(0) 
 BV BND1      B113(0) 
 BV BND1      B114(0) 
 BV BND1      B115(2) 
 BV BND1      B116(0) 
 BV BND1      B117(0) 
 BV BND1      B118(0) 
 BV BND1      B119(0) 
 BV BND1      B120(0) 
 BV BND1      B121(0) 
 BV BND1      B122(0) 
 BV BND1      B123(0) 
 BV BND1      B124(0) 
 BV BND1      B125(0) 
 BV BND1      B126(2) 
 BV BND1      B127(2) 
 BV BND1      B128(0) 
 BV BND1      B129(0) 
 BV BND1      B130(0) 
 BV BND1      B131(0) 
 BV BND1      B132(0) 
 BV BND1      B133(0) 
 BV BND1      B134(0) 
 BV BND1      B135(0) 
 BV BND1      B136(0) 
 BV BND1      B137(0) 
 BV BND1      B138(0) 
 BV BND1      B139(0) 
 BV BND1      B140(0) 
 BV BND1      B141(0) 
 BV BND1      B142(0) 
 BV BND1      B143(0) 
 BV BND1      B144(0) 
 BV BND1      B145(0) 
 BV BND1      B146(0) 
 BV BND1      B147(0) 
 BV BND1      B148(0) 
 BV BND1      B149(0) 
 BV BND1      B150(0) 
 BV BND1      B151(0) 
 BV BND1      B152(0) 
 BV BND1      B153(0) 
 BV BND1      B154(0) 
 BV BND1      B155(0) 
 BV BND1      B156(0) 
 BV BND1      B157(0) 
 BV BND1      B158(0) 
 BV BND1      B159(0) 
 BV BND1      B160(0) 
 BV BND1      B161(0) 
 BV BND1      B162(0) 
 BV BND1      B163(0) 
 LI BND1      I164(12)  0
 LI BND1      I165(12)  0
 LI BND1      I166(14)  0
 LI BND1      I167(12)  0
 LI BND1      I168(14)  0
 LI BND1      I169(13)  0
 LI BND1      I170(11)  0
 LI BND1      I171(12)  0
 LI BND1      I172(14)  0
 LI BND1      I173(13)  0
 LI BND1      I174(12)  0
 LI BND1      I175(12)  0
 LI BND1      I176(13)  0
 LI BND1      I177(13)  0
 LI BND1      I178(13)  0
 LI BND1      I179(12)  0
 LI BND1      I180(12)  0
 LI BND1      I181(13)  0
 LI BND1      I182(13)  0
 LI BND1      I183(13)  0
 LI BND1      I184(1)   0
 BV BND1      B185(2) 
 BV BND1      B186(2) 
 BV BND1      B187(2) 
 BV BND1      B188(4) 
 BV BND1      B189(4) 
 BV BND1      B190(2) 
 BV BND1      B191(2) 
 BV BND1      B192(2) 
 BV BND1      B193(2) 
 BV BND1      B194(4) 
 BV BND1      B195(2) 
 BV BND1      B196(2) 
 BV BND1      B197(2) 
 BV BND1      B198(4) 
 BV BND1      B199(4) 
 BV BND1      B200(2) 
 BV BND1      B201(2) 
 BV BND1      B202(2) 
 BV BND1      B203(4) 
 BV BND1      B204(4) 
QCMATRIX   OF_constraint
    I167(12)  B188(4)   -0.5
    B188(4)   I167(12)  -0.5
    I168(14)  B189(4)   -0.5
    B189(4)   I168(14)  -0.5
    I173(13)  B194(4)   -0.5
    B194(4)   I173(13)  -0.5
    I177(13)  B198(4)   -0.5
    B198(4)   I177(13)  -0.5
    I178(13)  B199(4)   -0.5
    B199(4)   I178(13)  -0.5
    I182(13)  B203(4)   -0.5
    B203(4)   I182(13)  -0.5
    I183(13)  B204(4)   -0.5
    B204(4)   I183(13)  -0.5
ENDATA
